10J3M/DAT/10J3MNNX-5.dat
10 3
34.4818 5.8721
15.3017 3.9117
20.1032 4.4837
24.4985 4.9496
28.8422 5.3705
30.2782 5.5026
28.5516 5.3434
22.1541 4.7068
15.0393 3.8781
31.9395 5.6515
49.67