10J3M/SOL/10J3MNNX-5.sol
solution status: optimal solution found
objective value:                     83.7300333333333
x#1#3                                               1 	(obj:0)
x#2#2                                               1 	(obj:0)
x#3#2                                               1 	(obj:0)
x#4#1                                               1 	(obj:0)
x#5#1                                               1 	(obj:0)
x#6#3                                               1 	(obj:0)
x#7#1                               0.610118755749824 	(obj:0)
x#7#2                               0.389881244250176 	(obj:0)
x#8#2                                               1 	(obj:0)
x#9#2                                               1 	(obj:0)
x#10#1                               0.40606354722731 	(obj:0)
x#10#3                               0.59393645277269 	(obj:0)
z                                    83.7300333333333 	(obj:1)
